(set-option :print-success false)
(set-logic QF_UF)
(declare-sort x73 0)
(declare-sort x139 0)
(declare-fun x36 () x139)
(declare-fun x49 () x139)
(declare-fun x12 () x139)
(declare-fun x25 (x139 x139) x139)
(declare-fun x79 (x139 x139) x139)
(declare-fun x3 () x139)
(declare-fun x93 () x139)
(assert (not (and (= (x25 x49 x49) x93) (and (= x36 (x25 x49 x3)) (and (= (x25 x49 x12) x49) (and (and (and (and (and (= (x25 x3 x12) x93) (and (and (and (= (x25 x12 x49) x12) (and (and (and (and (and (and (and (and (and (and (and (and (= (x25 x93 x12) x3) (and (= (x25 x93 x93) x49) (= (x25 x93 x36) x93))) (= (x25 x93 x3) x12)) (= x36 (x25 x93 x49))) (= x36 (x25 x36 x93))) (= (x25 x36 x36) x49)) (= (x25 x36 x12) x12)) (= (x25 x36 x3) x93)) (= x3 (x25 x36 x49))) (= x93 (x25 x12 x93))) (= (x25 x12 x36) x3)) (= x36 (x25 x12 x12))) (= x49 (x25 x12 x3)))) (= x12 (x25 x3 x93))) (= x36 (x25 x3 x36)))) (= (x25 x3 x3) x3)) (= (x25 x3 x49) x49)) (= (x25 x49 x93) x3)) (= (x25 x49 x36) x12)))))))
(assert (or (and (not (= (x25 x49 (x25 x49 x49)) x49)) (and (and (not (= x49 (x25 x12 (x25 x49 x12)))) (and (not (= x49 (x25 x93 (x25 x49 x93)))) (not (= x49 (x25 x36 (x25 x49 x36)))))) (not (= (x25 x3 (x25 x49 x3)) x49)))) (or (or (or (and (and (and (not (= x93 (x25 x12 (x25 x93 x12)))) (and (not (= x93 (x25 x93 (x25 x93 x93)))) (not (= (x25 x36 (x25 x93 x36)) x93)))) (not (= x93 (x25 x3 (x25 x93 x3))))) (not (= (x25 x49 (x25 x93 x49)) x93))) (and (not (= x36 (x25 x49 (x25 x36 x49)))) (and (and (and (not (= x36 (x25 x36 (x25 x36 x36)))) (not (= x36 (x25 x93 (x25 x36 x93))))) (not (= (x25 x12 (x25 x36 x12)) x36))) (not (= x36 (x25 x3 (x25 x36 x3))))))) (and (not (= x12 (x25 x49 (x25 x12 x49)))) (and (and (not (= x12 (x25 x12 (x25 x12 x12)))) (and (not (= (x25 x93 (x25 x12 x93)) x12)) (not (= (x25 x36 (x25 x12 x36)) x12)))) (not (= (x25 x3 (x25 x12 x3)) x12))))) (and (not (= (x25 x49 (x25 x3 x49)) x3)) (and (and (and (not (= (x25 x36 (x25 x3 x36)) x3)) (not (= x3 (x25 x93 (x25 x3 x93))))) (not (= x3 (x25 x12 (x25 x3 x12))))) (not (= (x25 x3 (x25 x3 x3)) x3)))))))
(assert (or (or (= x3 (x25 x3 x3)) (or (or (= x93 (x25 x93 x93)) (= (x25 x36 x36) x36)) (= x12 (x25 x12 x12)))) (= x49 (x25 x49 x49))))
(assert (let ((x28 (x25 x12 x36)) (x154 (x25 x12 x49)) (x92 (= x36 (x25 x36 x36))) (x99 (x25 x36 x3)) (x77 (x25 x49 x36)) (x94 (x25 x3 x36)) (x133 (x25 x3 x12)) (x150 (x25 x12 x93)) (x63 (= x3 (x25 x3 x3))) (x157 (= x49 (x25 x49 x49))) (x76 (= x12 (x25 x12 x12))) (x118 (x25 x93 x3)) (x69 (x25 x93 x36)) (x96 (x25 x49 x93)) (x101 (x25 x12 x3)) (x64 (x25 x36 x49)) (x120 (x25 x36 x12)) (x159 (= (x25 x93 x93) x93)) (x22 (x25 x36 x93)) (x5 (x25 x93 x12)) (x83 (x25 x3 x93)) (x119 (x25 x49 x3)) (x81 (x25 x3 x49)) (x131 (x25 x49 x12)) (x20 (x25 x93 x49))) (and (or (or (or (= x81 x3) (or (= x12 x154) (or (= x64 x36) (= x93 x20)))) x157) (or x157 (or (= x3 x119) (or (= x131 x12) (or (= x36 x77) (= x96 x93)))))) (and (and (or (or (or (or x76 (or (= x93 x150) (= x36 x28))) (= x3 x101)) (= x49 x154)) (or (or (or x76 (or (= x120 x36) (= x93 x5))) (= x3 x133)) (= x49 x131))) (and (or (or (= x64 x49) (or (or (or x92 (= x93 x22)) (= x12 x120)) (= x99 x3))) (or (= x49 x77) (or (or (or x92 (= x93 x69)) (= x12 x28)) (= x3 x94)))) (or (or (= x49 x20) (or (= x3 x118) (or (or x159 (= x69 x36)) (= x5 x12)))) (or (= x49 x96) (or (or (= x12 x150) (or (= x36 x22) x159)) (= x83 x3)))))) (or (or (or x63 (or (= x12 x101) (or (= x93 x118) (= x36 x99)))) (= x119 x49)) (or (or x63 (or (or (= x36 x94) (= x93 x83)) (= x12 x133))) (= x81 x49)))))))
(assert (let ((x92 (x25 x3 x3)) (x5 (x25 x49 x49)) (x22 (x25 x12 x12)) (x69 (x25 x36 x36)) (x159 (x25 x93 x93))) (or (and (not (= x49 x5)) (and (not (= x92 x49)) (and (and (not (= x159 x49)) (not (= x49 x69))) (not (= x49 x22))))) (or (or (and (not (= x12 x5)) (and (and (and (not (= x12 x159)) (not (= x69 x12))) (not (= x12 x22))) (not (= x12 x92)))) (or (and (not (= x5 x36)) (and (and (not (= x22 x36)) (and (not (= x69 x36)) (not (= x36 x159)))) (not (= x92 x36)))) (and (and (and (not (= x93 x22)) (and (not (= x93 x159)) (not (= x69 x93)))) (not (= x92 x93))) (not (= x93 x5))))) (and (not (= x3 x5)) (and (not (= x92 x3)) (and (not (= x3 x22)) (and (not (= x159 x3)) (not (= x3 x69))))))))))
(assert (or (and (not (= (x25 x49 x49) x49)) (and (not (= x3 (x25 x49 x3))) (and (and (not (= (x25 x49 x93) x93)) (not (= x36 (x25 x49 x36)))) (not (= (x25 x49 x12) x12))))) (or (or (or (and (not (= (x25 x36 x49) x49)) (and (and (not (= (x25 x36 x12) x12)) (and (not (= x36 (x25 x36 x36))) (not (= x93 (x25 x36 x93))))) (not (= x3 (x25 x36 x3))))) (and (and (not (= x3 (x25 x93 x3))) (and (not (= (x25 x93 x12) x12)) (and (not (= x36 (x25 x93 x36))) (not (= (x25 x93 x93) x93))))) (not (= x49 (x25 x93 x49))))) (and (and (not (= (x25 x12 x3) x3)) (and (and (not (= (x25 x12 x36) x36)) (not (= (x25 x12 x93) x93))) (not (= x12 (x25 x12 x12))))) (not (= x49 (x25 x12 x49))))) (and (not (= x49 (x25 x3 x49))) (and (and (and (not (= x93 (x25 x3 x93))) (not (= x36 (x25 x3 x36)))) (not (= (x25 x3 x12) x12))) (not (= (x25 x3 x3) x3)))))))
(assert (not (and (and (and (= (x25 x49 x12) x12) (and (= x49 (x25 x49 x36)) (and (= (x25 x49 x93) x3) (and (and (= x3 (x25 x3 x3)) (and (= (x25 x3 x12) x49) (and (and (and (= (x25 x12 x49) x3) (and (and (and (= (x25 x12 x36) x93) (and (and (= (x25 x36 x49) x36) (and (and (= (x25 x36 x12) x3) (and (and (= x49 (x25 x36 x93)) (and (and (= x12 (x25 x93 x3)) (and (= x93 (x25 x93 x12)) (and (= (x25 x93 x93) x36) (= (x25 x93 x36) x3)))) (= x49 (x25 x93 x49)))) (= (x25 x36 x36) x12))) (= (x25 x36 x3) x93))) (= (x25 x12 x93) x12))) (= x36 (x25 x12 x12))) (= (x25 x12 x3) x49))) (= (x25 x3 x93) x93)) (= (x25 x3 x36) x36)))) (= (x25 x3 x49) x12))))) (= x36 (x25 x49 x3))) (= x93 (x25 x49 x49)))))
(assert (let ((x159 (x25 x93 x93)) (x94 (x25 x3 x12)) (x76 (x25 x12 x12)) (x157 (x25 x49 x49)) (x101 (x25 x3 x36)) (x83 (x25 x36 x3)) (x92 (x25 x36 x36)) (x69 (x25 x36 x93)) (x133 (x25 x12 x3)) (x5 (x25 x12 x93)) (x63 (x25 x3 x3)) (x64 (x25 x93 x49)) (x150 (x25 x12 x36)) (x119 (x25 x3 x49)) (x118 (x25 x3 x93)) (x154 (x25 x49 x36)) (x131 (x25 x49 x3)) (x99 (x25 x93 x3)) (x22 (x25 x93 x36)) (x28 (x25 x36 x12)) (x81 (x25 x36 x49)) (x20 (x25 x49 x93)) (x77 (x25 x12 x49)) (x96 (x25 x49 x12)) (x120 (x25 x93 x12))) (and (and (and (or (or (or (not (= x76 x76)) (or (not (= x120 x5)) (not (= x150 x28)))) (not (= x133 x94))) (not (= x96 x77))) (and (or (not (= x20 x64)) (or (not (= x99 x118)) (or (or (not (= x159 x159)) (not (= x69 x22))) (not (= x120 x5))))) (or (or (not (= x83 x101)) (or (or (not (= x92 x92)) (not (= x69 x22))) (not (= x28 x150)))) (not (= x154 x81))))) (or (or (or (or (not (= x99 x118)) (not (= x101 x83))) (not (= x94 x133))) (not (= x63 x63))) (not (= x131 x119)))) (or (not (= x157 x157)) (or (or (not (= x96 x77)) (or (not (= x81 x154)) (not (= x20 x64)))) (not (= x131 x119)))))))
(assert (and (and (and (or (= (x25 x49 x12) x49) (or (= (x25 x3 x12) x3) (or (= (x25 x12 x12) x12) (or (= x36 (x25 x36 x12)) (= (x25 x93 x12) x93))))) (and (or (= (x25 x49 x36) x49) (or (or (= (x25 x12 x36) x12) (or (= x36 (x25 x36 x36)) (= x93 (x25 x93 x36)))) (= (x25 x3 x36) x3))) (or (= (x25 x49 x93) x49) (or (or (= x12 (x25 x12 x93)) (or (= x36 (x25 x36 x93)) (= (x25 x93 x93) x93))) (= (x25 x3 x93) x3))))) (or (or (or (or (= x93 (x25 x93 x3)) (= (x25 x36 x3) x36)) (= (x25 x12 x3) x12)) (= (x25 x3 x3) x3)) (= x49 (x25 x49 x3)))) (or (or (= (x25 x3 x49) x3) (or (= x12 (x25 x12 x49)) (or (= x36 (x25 x36 x49)) (= x93 (x25 x93 x49))))) (= x49 (x25 x49 x49)))))
(assert (let ((x109 (x25 x49 x12)) (x127 (x25 x93 x3)) (x84 (x25 x12 x93)) (x153 (x25 x12 x12)) (x91 (x25 x36 x49)) (x132 (x25 x3 x12)) (x24 (x25 x3 x36)) (x112 (x25 x49 x93)) (x65 (x25 x36 x12)) (x10 (x25 x36 x3)) (x135 (x25 x12 x49)) (x70 (x25 x3 x49)) (x66 (x25 x3 x93)) (x55 (x25 x36 x36)) (x39 (x25 x49 x36)) (x95 (x25 x93 x93)) (x29 (x25 x93 x49)) (x110 (x25 x36 x93)) (x113 (x25 x12 x36)) (x46 (x25 x93 x12)) (x122 (x25 x49 x49)) (x126 (x25 x3 x3)) (x58 (x25 x93 x36)) (x107 (x25 x49 x3)) (x1 (x25 x12 x3))) (let ((x27 (= x55 x12)) (x74 (= x58 x49)) (x62 (= x126 x3)) (x121 (= x36 x107)) (x54 (= x3 x84)) (x141 (= x12 x84)) (x150 (= x93 x113)) (x41 (= x49 x135)) (x131 (= x93 x107)) (x101 (= x93 x24)) (x117 (= x24 x49)) (x148 (= x49 x70)) (x119 (= x70 x93)) (x30 (= x3 x1)) (x28 (= x93 x65)) (x6 (= x91 x12)) (x63 (= x126 x93)) (x76 (= x153 x93)) (x20 (= x93 x112)) (x114 (= x127 x12)) (x94 (= x132 x93)) (x87 (= x91 x36)) (x56 (= x3 x39)) (x7 (= x36 x70)) (x51 (= x12 x107)) (x75 (= x3 x122)) (x37 (= x12 x65)) (x108 (= x95 x49)) (x88 (= x95 x36)) (x147 (= x112 x12)) (x21 (= x12 x135)) (x47 (= x12 x58)) (x38 (= x112 x36)) (x154 (= x39 x93)) (x2 (= x66 x3)) (x15 (= x24 x12)) (x140 (= x36 x65)) (x129 (= x1 x12)) (x13 (= x29 x49)) (x57 (= x109 x3)) (x83 (= x93 x10)) (x8 (= x3 x10)) (x82 (= x127 x3)) (x60 (= x112 x3)) (x40 (= x12 x110)) (x155 (= x65 x49)) (x143 (= x49 x132)) (x116 (= x12 x46)) (x151 (= x91 x49)) (x67 (= x49 x10)) (x158 (= x36 x109)) (x4 (= x12 x10)) (x5 (= x84 x93)) (x99 (= x93 x127)) (x77 (= x93 x135)) (x32 (= x46 x3)) (x69 (= x110 x93)) (x44 (= x58 x3)) (x35 (= x3 x91)) (x42 (= x12 x153)) (x145 (= x12 x109)) (x33 (= x49 x46)) (x17 (= x24 x3)) (x71 (= x55 x36)) (x146 (= x132 x12)) (x124 (= x65 x3)) (x125 (= x49 x66)) (x61 (= x36 x113)) (x134 (= x1 x49)) (x22 (= x58 x93)) (x19 (= x39 x49)) (x157 (= x93 x122)) (x86 (= x12 x39)) (x138 (= x113 x3)) (x137 (= x36 x84)) (x64 (= x93 x29)) (x92 (= x93 x55)) (x89 (= x49 x126)) (x31 (= x49 x113)) (x115 (= x126 x36)) (x53 (= x12 x113)) (x152 (= x126 x12)) (x34 (= x3 x153)) (x133 (= x93 x1)) (x118 (= x66 x93)) (x85 (= x39 x36)) (x120 (= x46 x93)) (x102 (= x36 x110)) (x136 (= x70 x3)) (x104 (= x3 x135)) (x68 (= x112 x49)) (x45 (= x122 x49)) (x18 (= x36 x58)) (x144 (= x66 x36)) (x111 (= x3 x29)) (x80 (= x36 x132)) (x81 (= x93 x91)) (x106 (= x153 x36)) (x100 (= x10 x36)) (x105 (= x110 x3)) (x156 (= x12 x66)) (x90 (= x109 x49)) (x72 (= x110 x49)) (x96 (= x93 x109)) (x23 (= x107 x49)) (x14 (= x36 x1)) (x123 (= x36 x46)) (x43 (= x29 x12)) (x97 (= x29 x36)) (x9 (= x95 x12)) (x26 (= x70 x12)) (x159 (= x95 x93)) (x128 (= x49 x153)) (x50 (= x84 x49)) (x78 (= x3 x107)) (x48 (= x127 x49)) (x59 (= x24 x36)) (x52 (= x122 x12)) (x142 (= x49 x55)) (x149 (= x132 x3)) (x98 (= x135 x36)) (x11 (= x3 x95)) (x130 (= x122 x36)) (x103 (= x36 x127)) (x16 (= x3 x55))) (and (and (and (or (or (and (not x52) x52) (or (and x51 (not x26)) (or (and x145 (not x21)) (or (and (not x6) x86) (and x147 (not x43)))))) (or (or (or (or (or (and x42 (not x42)) (or (and x53 (not x37)) (and (not x116) x141))) (and (not x146) x129)) (and x21 (not x145))) (or (or (or (or (and (not x141) x116) (or (and (not x9) x9) (and x47 (not x40)))) (and x114 (not x156))) (and (not x147) x43)) (or (and x6 (not x86)) (or (or (or (and x40 (not x47)) (and (not x27) x27)) (and (not x53) x37)) (and (not x15) x4))))) (or (and (not x51) x26) (or (and x152 (not x152)) (or (and x146 (not x129)) (or (and x156 (not x114)) (and x15 (not x4)))))))) (and (or (or (or (or (or (and x38 (not x97)) (and x85 (not x87))) (and (not x98) x158)) (and (not x7) x121)) (and x130 (not x130))) (or (or (and x7 (not x121)) (or (or (and x80 (not x14)) (or (and x144 (not x103)) (and x59 (not x100)))) (and x115 (not x115)))) (or (or (or (or (or (and (not x137) x123) (or (and (not x102) x18) (and (not x88) x88))) (and x103 (not x144))) (and x97 (not x38))) (or (or (and (not x59) x100) (or (and x140 (not x61)) (or (and (not x71) x71) (and (not x18) x102)))) (and x87 (not x85)))) (or (and x98 (not x158)) (or (and (not x80) x14) (or (or (and (not x123) x137) (and (not x140) x61)) (and (not x106) x106))))))) (or (or (or (and x119 (not x131)) (or (and x63 (not x63)) (or (and x94 (not x133)) (or (and x118 (not x99)) (and x101 (not x83)))))) (or (or (or (or (and (not x118) x99) (or (and (not x5) x120) (or (and x159 (not x159)) (and x22 (not x69))))) (and (not x20) x64)) (or (and x81 (not x154)) (or (and x83 (not x101)) (or (or (and (not x92) x92) (and (not x22) x69)) (and x28 (not x150)))))) (or (or (and x133 (not x94)) (or (and (not x76) x76) (or (and (not x120) x5) (and x150 (not x28))))) (and (not x96) x77)))) (or (and x157 (not x157)) (or (or (or (and (not x81) x154) (and (not x64) x20)) (and (not x77) x96)) (and (not x119) x131)))))) (or (or (or (or (or (and x30 (not x149)) (or (or (and (not x32) x54) (and x138 (not x124))) (and (not x34) x34))) (and x104 (not x57))) (or (or (and x111 (not x60)) (or (and x82 (not x2)) (or (or (and x11 (not x11)) (and (not x105) x44)) (and x32 (not x54))))) (or (and (not x56) x35) (or (and x8 (not x17)) (or (or (and (not x16) x16) (and (not x44) x105)) (and x124 (not x138))))))) (or (or (or (and (not x30) x149) (or (and x17 (not x8)) (and x2 (not x82)))) (and x62 (not x62))) (and (not x78) x136))) (or (or (and x78 (not x136)) (or (and x57 (not x104)) (or (and (not x35) x56) (and (not x111) x60)))) (and x75 (not x75))))) (or (or (and (not x45) x45) (or (or (and x90 (not x41)) (or (and (not x13) x68) (and x19 (not x151)))) (and (not x148) x23))) (or (or (or (or (or (and (not x67) x117) (and (not x48) x125)) (and x143 (not x134))) (and (not x89) x89)) (and x148 (not x23))) (or (or (or (or (or (and x155 (not x31)) (or (and (not x74) x72) (and x142 (not x142)))) (and (not x117) x67)) (and x151 (not x19))) (or (and x13 (not x68)) (or (or (and (not x50) x33) (or (and x74 (not x72)) (and (not x108) x108))) (and x48 (not x125))))) (or (or (or (and x128 (not x128)) (or (and (not x155) x31) (and x50 (not x33)))) (and x134 (not x143))) (and x41 (not x90))))))))))
(assert (let ((x101 (x25 x12 x36)) (x64 (x25 x3 x12)) (x28 (x25 x36 x12)) (x20 (x25 x3 x36)) (x81 (x25 x3 x49)) (x5 (x25 x93 x49)) (x118 (x25 x36 x49)) (x83 (x25 x12 x12)) (x96 (x25 x49 x93)) (x99 (x25 x12 x93)) (x92 (x25 x93 x3)) (x94 (x25 x12 x3)) (x154 (x25 x3 x3)) (x77 (x25 x49 x36)) (x63 (x25 x3 x93)) (x119 (x25 x49 x3)) (x133 (x25 x12 x49)) (x159 (x25 x93 x93)) (x120 (x25 x36 x93)) (x76 (x25 x36 x3)) (x131 (x25 x49 x12)) (x22 (x25 x93 x12)) (x150 (x25 x36 x36)) (x69 (x25 x93 x36)) (x157 (x25 x49 x49))) (and (and (and (and (and (and (and (and (or (or (or (= x159 x12) (or (= x159 x36) (= x159 x93))) (= x3 x159)) (= x159 x49)) (or (= x69 x49) (or (= x3 x69) (or (= x69 x12) (or (= x69 x93) (= x36 x69)))))) (or (or (or (= x22 x12) (or (= x22 x36) (= x93 x22))) (= x3 x22)) (= x49 x22))) (or (or (or (= x12 x92) (or (= x92 x93) (= x92 x36))) (= x92 x3)) (= x92 x49))) (or (= x5 x49) (or (or (= x12 x5) (or (= x36 x5) (= x93 x5))) (= x5 x3)))) (and (or (= x118 x49) (or (= x3 x118) (or (or (= x118 x36) (= x118 x93)) (= x12 x118)))) (and (and (or (or (= x3 x28) (or (= x12 x28) (or (= x28 x36) (= x93 x28)))) (= x49 x28)) (and (or (= x49 x150) (or (= x3 x150) (or (= x12 x150) (or (= x150 x93) (= x150 x36))))) (or (= x120 x49) (or (= x120 x3) (or (= x120 x12) (or (= x120 x93) (= x36 x120))))))) (or (or (= x3 x76) (or (= x12 x76) (or (= x36 x76) (= x93 x76)))) (= x76 x49))))) (and (or (or (or (= x12 x133) (or (= x93 x133) (= x133 x36))) (= x133 x3)) (= x49 x133)) (and (or (= x94 x49) (or (= x3 x94) (or (= x94 x12) (or (= x36 x94) (= x93 x94))))) (and (or (or (= x3 x83) (or (or (= x83 x36) (= x93 x83)) (= x83 x12))) (= x83 x49)) (and (or (or (or (or (= x101 x36) (= x101 x93)) (= x12 x101)) (= x101 x3)) (= x49 x101)) (or (= x49 x99) (or (or (= x99 x12) (or (= x36 x99) (= x99 x93))) (= x3 x99)))))))) (and (and (and (and (or (or (= x3 x20) (or (= x12 x20) (or (= x20 x93) (= x36 x20)))) (= x20 x49)) (or (or (= x3 x63) (or (= x63 x12) (or (= x63 x93) (= x63 x36)))) (= x49 x63))) (or (= x64 x49) (or (= x64 x3) (or (or (= x64 x36) (= x93 x64)) (= x12 x64))))) (or (= x154 x49) (or (or (or (= x154 x36) (= x154 x93)) (= x12 x154)) (= x154 x3)))) (or (= x81 x49) (or (or (= x12 x81) (or (= x81 x93) (= x36 x81))) (= x3 x81))))) (and (and (and (or (or (or (= x12 x131) (or (= x36 x131) (= x93 x131))) (= x3 x131)) (= x49 x131)) (and (or (or (= x3 x96) (or (= x96 x12) (or (= x96 x93) (= x96 x36)))) (= x49 x96)) (or (or (= x3 x77) (or (or (= x77 x93) (= x36 x77)) (= x12 x77))) (= x49 x77)))) (or (= x119 x49) (or (= x3 x119) (or (= x119 x12) (or (= x36 x119) (= x93 x119)))))) (or (= x157 x49) (or (or (or (= x36 x157) (= x157 x93)) (= x157 x12)) (= x3 x157)))))))
(assert (and (= x3 (x25 x49 x93)) (and (and (= (x25 x12 x12) x36) (= x93 (x25 x49 x49))) (= (x25 x93 x3) x12))))
(assert (let ((x112 (x25 x49 x93)) (x110 (x25 x36 x93)) (x109 (x25 x49 x12)) (x135 (x25 x12 x49)) (x153 (x25 x12 x12)) (x127 (x25 x93 x3)) (x113 (x25 x12 x36)) (x95 (x25 x93 x93)) (x46 (x25 x93 x12)) (x10 (x25 x36 x3)) (x126 (x25 x3 x3)) (x91 (x25 x36 x49)) (x84 (x25 x12 x93)) (x65 (x25 x36 x12)) (x29 (x25 x93 x49)) (x58 (x25 x93 x36)) (x66 (x25 x3 x93)) (x107 (x25 x49 x3)) (x1 (x25 x12 x3)) (x24 (x25 x3 x36)) (x55 (x25 x36 x36)) (x39 (x25 x49 x36)) (x70 (x25 x3 x49)) (x132 (x25 x3 x12)) (x122 (x25 x49 x49))) (let ((x27 (= x55 x12)) (x108 (= x95 x49)) (x154 (= x39 x93)) (x53 (= x12 x113)) (x143 (= x132 x49)) (x117 (= x24 x49)) (x74 (= x58 x49)) (x68 (= x49 x112)) (x43 (= x12 x29)) (x116 (= x46 x12)) (x47 (= x58 x12)) (x130 (= x36 x122)) (x106 (= x153 x36)) (x71 (= x55 x36)) (x152 (= x126 x12)) (x34 (= x3 x153)) (x150 (= x113 x93)) (x155 (= x65 x49)) (x2 (= x66 x3)) (x33 (= x49 x46)) (x151 (= x91 x49)) (x59 (= x36 x24)) (x104 (= x3 x135)) (x15 (= x24 x12)) (x45 (= x49 x122)) (x30 (= x3 x1)) (x89 (= x126 x49)) (x76 (= x93 x153)) (x86 (= x39 x12)) (x19 (= x39 x49)) (x78 (= x107 x3)) (x147 (= x12 x112)) (x118 (= x66 x93)) (x40 (= x110 x12)) (x38 (= x36 x112)) (x14 (= x1 x36)) (x35 (= x3 x91)) (x131 (= x107 x93)) (x60 (= x3 x112)) (x145 (= x109 x12)) (x72 (= x49 x110)) (x128 (= x49 x153)) (x146 (= x12 x132)) (x52 (= x12 x122)) (x125 (= x66 x49)) (x69 (= x110 x93)) (x103 (= x36 x127)) (x148 (= x70 x49)) (x13 (= x29 x49)) (x100 (= x10 x36)) (x42 (= x12 x153)) (x37 (= x65 x12)) (x137 (= x36 x84)) (x82 (= x127 x3)) (x98 (= x36 x135)) (x64 (= x29 x93)) (x80 (= x36 x132)) (x26 (= x12 x70)) (x32 (= x3 x46)) (x9 (= x12 x95)) (x6 (= x12 x91)) (x61 (= x36 x113)) (x8 (= x10 x3)) (x5 (= x93 x84)) (x120 (= x93 x46)) (x101 (= x24 x93)) (x124 (= x3 x65)) (x23 (= x107 x49)) (x20 (= x93 x112)) (x62 (= x3 x126)) (x7 (= x70 x36)) (x90 (= x49 x109)) (x48 (= x127 x49)) (x83 (= x10 x93)) (x97 (= x36 x29)) (x4 (= x10 x12)) (x123 (= x46 x36)) (x57 (= x3 x109)) (x129 (= x1 x12)) (x158 (= x109 x36)) (x22 (= x58 x93)) (x140 (= x65 x36)) (x77 (= x93 x135)) (x81 (= x91 x93)) (x87 (= x36 x91)) (x92 (= x55 x93)) (x21 (= x135 x12)) (x157 (= x93 x122)) (x159 (= x95 x93)) (x50 (= x84 x49)) (x44 (= x3 x58)) (x16 (= x55 x3)) (x111 (= x3 x29)) (x136 (= x70 x3)) (x105 (= x3 x110)) (x28 (= x93 x65)) (x102 (= x36 x110)) (x121 (= x107 x36)) (x67 (= x49 x10)) (x141 (= x84 x12)) (x88 (= x95 x36)) (x142 (= x49 x55)) (x119 (= x93 x70)) (x41 (= x49 x135)) (x133 (= x93 x1)) (x115 (= x126 x36)) (x96 (= x93 x109)) (x149 (= x3 x132)) (x18 (= x36 x58)) (x156 (= x66 x12)) (x134 (= x49 x1)) (x75 (= x3 x122)) (x11 (= x95 x3)) (x138 (= x3 x113)) (x31 (= x113 x49)) (x99 (= x127 x93)) (x63 (= x93 x126)) (x114 (= x12 x127)) (x94 (= x132 x93)) (x85 (= x36 x39)) (x54 (= x84 x3)) (x144 (= x36 x66)) (x51 (= x12 x107)) (x17 (= x24 x3)) (x56 (= x39 x3))) (and (and (or (or (and x75 x75) (or (or (or (and x56 x35) (and x60 x111)) (and x57 x104)) (and x78 x136))) (or (or (or (or (or (or (and x124 x138) (or (and x44 x105) (and x16 x16))) (and x17 x8)) (and x35 x56)) (or (or (or (or (and x11 x11) (and x105 x44)) (and x32 x54)) (and x2 x82)) (and x60 x111))) (or (or (or (and x34 x34) (or (and x32 x54) (and x124 x138))) (and x30 x149)) (and x57 x104))) (or (and x78 x136) (or (and x62 x62) (or (or (and x8 x17) (and x2 x82)) (and x149 x30)))))) (and (and (or (or (or (or (or (or (and x144 x103) (and x59 x100)) (and x80 x14)) (and x115 x115)) (and x121 x7)) (or (or (or (or (or (and x140 x61) (or (and x71 x71) (and x18 x102))) (and x59 x100)) (and x87 x85)) (or (or (or (or (and x102 x18) (and x88 x88)) (and x137 x123)) (and x103 x144)) (and x38 x97))) (or (or (and x80 x14) (or (or (and x137 x123) (and x140 x61)) (and x106 x106))) (and x98 x158)))) (or (and x130 x130) (or (and x121 x7) (or (or (and x85 x87) (and x38 x97)) (and x98 x158))))) (or (or (and x157 x157) (or (and x131 x119) (or (or (and x64 x20) (and x81 x154)) (and x77 x96)))) (or (or (and x131 x119) (or (and x63 x63) (or (and x94 x133) (or (and x101 x83) (and x99 x118))))) (or (or (or (and x64 x20) (or (or (and x120 x5) (or (and x69 x22) (and x159 x159))) (and x118 x99))) (or (and x81 x154) (or (and x83 x101) (or (or (and x69 x22) (and x92 x92)) (and x150 x28))))) (or (or (or (and x76 x76) (or (and x120 x5) (and x150 x28))) (and x133 x94)) (and x77 x96)))))) (or (or (or (and x51 x26) (or (and x152 x152) (or (or (and x15 x4) (and x114 x156)) (and x146 x129)))) (or (or (or (or (or (or (and x47 x40) (and x9 x9)) (and x116 x141)) (and x114 x156)) (and x147 x43)) (or (and x6 x86) (or (and x4 x15) (or (and x37 x53) (or (and x27 x27) (and x47 x40)))))) (or (and x21 x145) (or (or (or (and x37 x53) (and x141 x116)) (and x42 x42)) (and x129 x146))))) (or (and x52 x52) (or (or (or (and x43 x147) (and x86 x6)) (and x21 x145)) (and x51 x26)))))) (or (or (or (or (or (or (or (or (and x72 x74) (and x142 x142)) (and x31 x155)) (and x67 x117)) (and x19 x151)) (or (and x13 x68) (or (and x125 x48) (or (or (and x72 x74) (and x108 x108)) (and x33 x50))))) (or (and x90 x41) (or (and x134 x143) (or (or (and x33 x50) (and x31 x155)) (and x128 x128))))) (or (or (or (and x134 x143) (or (and x48 x125) (and x117 x67))) (and x89 x89)) (and x23 x148))) (or (and x45 x45) (or (and x23 x148) (or (or (and x68 x13) (and x151 x19)) (and x41 x90)))))))))
(assert (let ((x77 (x25 x36 x49)) (x88 (x25 x49 x36)) (x37 (x25 x49 x3)) (x111 (x25 x49 x49)) (x5 (x25 x93 x3)) (x120 (x25 x93 x49)) (x91 (x25 x12 x12)) (x76 (x25 x12 x93)) (x22 (x25 x93 x36)) (x81 (x25 x36 x12)) (x69 (x25 x93 x93)) (x96 (x25 x36 x3)) (x92 (x25 x93 x12)) (x118 (x25 x3 x93)) (x40 (x25 x3 x3)) (x47 (x25 x3 x49)) (x153 (x25 x3 x12)) (x106 (x25 x49 x12)) (x137 (x25 x12 x49)) (x28 (x25 x36 x93)) (x99 (x25 x49 x93)) (x95 (x25 x3 x36)) (x154 (x25 x36 x36)) (x39 (x25 x12 x3)) (x157 (x25 x12 x36))) (let ((x66 (= x3 x154)) (x44 (= x49 x39)) (x14 (= x3 x91)) (x112 (= x49 x22)) (x63 (= x22 x93)) (x68 (= x99 x49)) (x142 (= x77 x12)) (x65 (= x93 x81)) (x1 (= x76 x12)) (x85 (= x95 x93)) (x67 (= x77 x3)) (x78 (= x36 x111)) (x17 (= x93 x47)) (x50 (= x137 x12)) (x122 (= x118 x36)) (x80 (= x3 x81)) (x145 (= x3 x39)) (x125 (= x3 x106)) (x16 (= x49 x40)) (x33 (= x12 x47)) (x53 (= x36 x40)) (x140 (= x36 x91)) (x105 (= x49 x96)) (x143 (= x3 x137)) (x61 (= x81 x36)) (x116 (= x39 x36)) (x60 (= x36 x37)) (x35 (= x36 x77)) (x4 (= x96 x12)) (x119 (= x154 x36)) (x158 (= x5 x93)) (x82 (= x137 x93)) (x46 (= x12 x154)) (x6 (= x96 x3)) (x147 (= x95 x3)) (x117 (= x120 x3)) (x115 (= x157 x49)) (x87 (= x93 x153)) (x71 (= x92 x93)) (x62 (= x36 x106)) (x121 (= x39 x93)) (x104 (= x47 x36)) (x159 (= x93 x69)) (x30 (= x88 x36)) (x148 (= x47 x49)) (x56 (= x120 x36)) (x8 (= x93 x111)) (x18 (= x93 x76)) (x59 (= x3 x157)) (x13 (= x88 x49)) (x107 (= x81 x49)) (x57 (= x36 x137)) (x135 (= x12 x92)) (x38 (= x91 x49)) (x114 (= x12 x153)) (x129 (= x40 x12)) (x21 (= x3 x40)) (x133 (= x28 x93)) (x86 (= x3 x5)) (x146 (= x39 x12)) (x20 (= x154 x93)) (x138 (= x106 x93)) (x109 (= x81 x12)) (x149 (= x99 x36)) (x55 (= x157 x93)) (x110 (= x22 x12)) (x7 (= x93 x40)) (x156 (= x95 x12)) (x101 (= x69 x12)) (x41 (= x77 x49)) (x70 (= x92 x49)) (x89 (= x3 x111)) (x83 (= x3 x69)) (x15 (= x5 x12)) (x54 (= x93 x99)) (x152 (= x118 x3)) (x75 (= x12 x88)) (x124 (= x37 x93)) (x131 (= x36 x22)) (x98 (= x93 x96)) (x130 (= x95 x36)) (x43 (= x3 x153)) (x58 (= x12 x28)) (x42 (= x12 x118)) (x128 (= x88 x3)) (x52 (= x153 x49)) (x94 (= x49 x69)) (x32 (= x93 x88)) (x51 (= x49 x118)) (x72 (= x37 x12)) (x23 (= x49 x137)) (x155 (= x3 x99)) (x24 (= x36 x157)) (x74 (= x12 x120)) (x10 (= x76 x36)) (x113 (= x91 x93)) (x90 (= x120 x49)) (x123 (= x92 x36)) (x103 (= x76 x3)) (x150 (= x36 x69)) (x2 (= x77 x93)) (x100 (= x92 x3)) (x29 (= x49 x28)) (x34 (= x93 x120)) (x144 (= x91 x12)) (x26 (= x49 x95)) (x9 (= x36 x153)) (x27 (= x5 x36)) (x48 (= x37 x3)) (x45 (= x49 x111)) (x151 (= x49 x37)) (x31 (= x111 x12)) (x84 (= x3 x28)) (x136 (= x12 x99)) (x108 (= x12 x106)) (x134 (= x3 x47)) (x64 (= x36 x28)) (x132 (= x157 x12)) (x102 (= x154 x49)) (x19 (= x49 x106)) (x126 (= x76 x49)) (x97 (= x93 x118)) (x11 (= x5 x49)) (x141 (= x96 x36)) (x127 (= x22 x3))) (and (and (and (and (and (and (and (or (or (or x103 (or x84 x83)) x152) x155) (or (or (or x100 (or x127 x83)) x86) x117)) (and (and (or (or x15 (or (or x110 x101) x135)) x74) (or (or x42 (or (or x101 x58) x1)) x136)) (and (and (or x56 (or x27 (or (or x150 x131) x123))) (or (or (or (or x150 x64) x10) x122) x149)) (and (or (or x97 (or x18 (or x133 x159))) x54) (or (or x158 (or (or x63 x159) x71)) x34))))) (and (or (or (or x70 (or x94 x112)) x11) x90) (or (or x51 (or (or x29 x94) x126)) x68))) (and (and (or (or x105 (or x107 (or x102 x29))) x41) (or (or (or (or x112 x102) x115) x26) x13)) (and (and (and (or (or x156 (or (or x46 x110) x132)) x75) (or (or (or (or x46 x58) x109) x4) x142)) (and (and (or (or (or x55 (or x63 x20)) x85) x32) (or (or (or x65 (or x133 x20)) x98) x2)) (and (or x35 (or x141 (or x61 (or x119 x64)))) (or x30 (or (or x24 (or x119 x131)) x130))))) (and (or x67 (or x6 (or (or x84 x66) x80))) (or x128 (or (or (or x66 x127) x59) x147)))))) (and (and (or (or (or x38 (or x107 x70)) x52) x19) (or (or x44 (or (or x115 x126) x38)) x23)) (and (and (and (and (or (or x9 (or (or x123 x61) x140)) x62) (or (or (or x140 (or x10 x24)) x116) x57)) (and (or x138 (or (or (or x71 x65) x113) x87)) (or (or (or (or x55 x18) x113) x121) x82))) (and (or x50 (or (or (or x132 x1) x144) x146)) (or (or x114 (or (or x135 x109) x144)) x108))) (and (or (or (or (or x100 x80) x14) x43) x125) (or (or (or x14 (or x103 x59)) x145) x143))))) (and (and (or (or (or x52 (or x26 x51)) x16) x148) (or x151 (or x16 (or (or x11 x105) x44)))) (and (and (and (or x33 (or x129 (or x114 (or x156 x42)))) (or (or (or x146 (or x15 x4)) x129) x72)) (and (and (or x104 (or x53 (or (or x122 x130) x9))) (or (or x53 (or x116 (or x141 x27))) x60)) (and (or x17 (or x7 (or x87 (or x97 x85)))) (or x124 (or (or x121 (or x158 x98)) x7))))) (and (or (or (or x43 (or x147 x152)) x21) x134) (or x48 (or x21 (or x145 (or x86 x6)))))))) (and (and (or x45 (or (or (or x41 x90) x23) x148)) (or x45 (or x151 (or (or x68 x13) x19)))) (and (and (or (or (or (or x155 x128) x125) x48) x89) (or x89 (or x134 (or (or x117 x67) x143)))) (and (and (or x31 (or (or (or x142 x74) x50) x33)) (or (or (or (or x75 x136) x108) x72) x31)) (and (and (or x8 (or (or (or x34 x2) x82) x17)) (or x8 (or (or x138 (or x32 x54)) x124))) (and (or (or (or (or x35 x56) x57) x104) x78) (or (or x60 (or x62 (or x149 x30))) x78))))))))))
(assert (let ((x28 (x25 x12 x36)) (x96 (x25 x93 x49)) (x157 (x25 x49 x49)) (x119 (x25 x3 x49)) (x131 (x25 x12 x49)) (x94 (x25 x3 x12)) (x150 (x25 x36 x36)) (x5 (x25 x49 x93)) (x20 (x25 x36 x3)) (x81 (x25 x49 x3)) (x76 (x25 x3 x36)) (x99 (x25 x93 x12)) (x22 (x25 x12 x93)) (x92 (x25 x3 x93)) (x159 (x25 x93 x93)) (x83 (x25 x12 x12)) (x154 (x25 x3 x3)) (x64 (x25 x12 x3)) (x101 (x25 x36 x12)) (x63 (x25 x93 x3)) (x118 (x25 x49 x36)) (x69 (x25 x36 x93)) (x77 (x25 x36 x49)) (x120 (x25 x93 x36)) (x133 (x25 x49 x12))) (and (and (and (and (and (and (not (= x96 x63)) (and (not (= x99 x96)) (and (and (not (= x96 x120)) (and (not (= x120 x63)) (and (and (and (and (not (= x99 x159)) (not (= x120 x159))) (not (= x159 x63))) (not (= x96 x159))) (not (= x99 x120))))) (not (= x99 x63))))) (and (and (and (and (and (and (not (= x150 x101)) (and (not (= x69 x77)) (and (and (not (= x69 x101)) (not (= x150 x69))) (not (= x69 x20))))) (not (= x150 x20))) (not (= x77 x150))) (not (= x20 x101))) (not (= x101 x77))) (not (= x20 x77)))) (and (and (not (= x83 x131)) (and (and (and (not (= x28 x64)) (and (not (= x28 x83)) (and (and (not (= x64 x22)) (and (not (= x28 x22)) (not (= x83 x22)))) (not (= x22 x131))))) (not (= x131 x28))) (not (= x64 x83)))) (not (= x131 x64)))) (and (and (not (= x119 x94)) (and (not (= x154 x94)) (and (and (and (and (and (not (= x154 x92)) (and (not (= x76 x92)) (not (= x94 x92)))) (not (= x92 x119))) (not (= x76 x94))) (not (= x154 x76))) (not (= x76 x119))))) (not (= x119 x154)))) (and (not (= x81 x157)) (and (and (not (= x81 x133)) (and (not (= x118 x157)) (and (not (= x118 x81)) (and (not (= x133 x118)) (and (not (= x5 x157)) (and (and (not (= x133 x5)) (not (= x5 x118))) (not (= x5 x81)))))))) (not (= x133 x157))))) (and (and (not (= x119 x157)) (and (and (and (not (= x77 x157)) (and (not (= x119 x77)) (and (not (= x131 x77)) (and (and (not (= x96 x119)) (and (not (= x77 x96)) (not (= x96 x131)))) (not (= x157 x96)))))) (not (= x119 x131))) (not (= x131 x157)))) (and (and (and (and (and (not (= x94 x83)) (and (not (= x133 x101)) (and (and (not (= x101 x83)) (and (and (not (= x99 x94)) (and (not (= x101 x99)) (not (= x83 x99)))) (not (= x133 x99)))) (not (= x94 x101))))) (not (= x133 x83))) (not (= x94 x133))) (and (and (not (= x118 x76)) (and (not (= x118 x28)) (and (and (not (= x150 x118)) (and (and (and (not (= x118 x120)) (and (and (not (= x120 x150)) (not (= x120 x28))) (not (= x76 x120)))) (not (= x28 x150))) (not (= x150 x76)))) (not (= x76 x28))))) (and (not (= x92 x5)) (and (and (and (and (not (= x69 x92)) (and (and (not (= x5 x159)) (and (and (not (= x159 x22)) (not (= x69 x159))) (not (= x92 x159)))) (not (= x22 x69)))) (not (= x5 x69))) (not (= x22 x92))) (not (= x5 x22)))))) (and (not (= x154 x81)) (and (not (= x64 x81)) (and (and (and (not (= x20 x154)) (and (and (and (and (not (= x20 x63)) (not (= x64 x63))) (not (= x63 x154))) (not (= x81 x63))) (not (= x64 x20)))) (not (= x81 x20))) (not (= x64 x154))))))))))
(assert (and (and (not (= x49 x12)) (and (not (= x3 x12)) (and (not (= x49 x36)) (and (not (= x3 x36)) (and (not (= x12 x36)) (and (not (= x49 x93)) (and (and (not (= x12 x93)) (not (= x93 x36))) (not (= x3 x93))))))))) (not (= x3 x49))))
(check-sat)
(exit)
